db/inputs/30024248857890102941101724226304978693.smt2
(set-logic QF_FP)
(declare-const x0 (_ FloatingPoint 11 53))
(declare-const x1 (_ FloatingPoint 11 53))
(declare-const x2 (_ FloatingPoint 11 53))
(declare-const x3 (_ FloatingPoint 11 53))
(declare-const x4 (_ FloatingPoint 11 53))
(declare-const x5 (_ FloatingPoint 11 53))
(declare-const x6 (_ FloatingPoint 11 53))
(declare-const x7 (_ FloatingPoint 11 53))
(declare-const x8 (_ FloatingPoint 11 53))
(declare-const x9 (_ FloatingPoint 11 53))
(declare-const x10 (_ FloatingPoint 11 53))
(declare-const x11 (_ FloatingPoint 11 53))
(declare-const x12 (_ FloatingPoint 11 53))
(declare-const x13 (_ FloatingPoint 11 53))
(declare-const x14 (_ FloatingPoint 11 53))
(declare-const x15 (_ FloatingPoint 11 53))
(declare-const x16 (_ FloatingPoint 11 53))
(declare-const x17 (_ FloatingPoint 11 53))
(declare-const x18 (_ FloatingPoint 11 53))
(declare-const x19 (_ FloatingPoint 11 53))
(declare-const x20 (_ FloatingPoint 11 53))
(declare-const x21 (_ FloatingPoint 11 53))
(declare-const x22 (_ FloatingPoint 11 53))
(declare-const x23 (_ FloatingPoint 11 53))
(declare-const x24 (_ FloatingPoint 11 53))
(declare-const x25 (_ FloatingPoint 11 53))
(declare-const x26 (_ FloatingPoint 11 53))
(assert (fp.gt (fp.sub RNE (fp.sub RNE (fp.sub RNE x7 x10) (fp.div RNE x5 x17)) (fp.neg (fp.mul RNE x26 x5))) (fp.neg (fp.sub RNE (fp.neg x19) (fp.div RNE x23 x23)))))
(assert (fp.eq (fp.add RNE (fp.sub RNE (fp.div RNE x11 x7) (fp.sub RNE x10 x10)) (fp.sub RNE (fp.add RNE x8 x22) (fp.neg x25))) (fp.mul RNE (fp.add RNE (fp.sub RNE x18 x2) (fp.sub RNE x26 x8)) (fp.add RNE (fp.sub RNE x20 x19) (fp.neg x1)))))
(assert (fp.lt (fp.add RNE (fp.div RNE (fp.div RNE x8 x24) (fp.mul RNE x19 x0)) (fp.sub RNE (fp.mul RNE x22 x5) (fp.div RNE x6 x14))) (fp.mul RNE (fp.neg (fp.add RNE x9 x24)) (fp.sub RNE (fp.mul RNE x24 x6) (fp.neg x13)))))
(check-sat)
