db/data/30024248857890102941101724226304978693.z3.out
-------------------
2500.126674087
